
  22    4
  10   10   10   10

   0   0   0   0   0   3 2 3 4 
   4  10  10  10  10   3 11 6 5 
   7  10  10  10  10   2 11 5 
   6  10  10  10  10   5 14 13 11 10 9 
   5  10  10  10  10   4 13 10 9 8 
   5  10  10  10  10   2 8 7 
   4  10  10  10  10   2 15 10 
   6  10  10  10  10   2 14 12 
   8  10  10  10  10   3 18 16 15 
   3  10  10  10  10   1 12 
   9  10  10  10  10   1 12 
   5  10  10  10  10   3 21 18 16 
   4  10  10  10  10   3 18 17 15 
   9  10  10  10  10   3 21 18 17 
   6  10  10  10  10   3 21 20 19 
   4  10  10  10  10   2 19 17 
   7  10  10  10  10   1 20 
   7  10  10  10  10   1 19 
   1  10  10  10  10   1 22
   2  10  10  10  10   1 22
   5  10  10  10  10   1 22
   0   0   0   0   0   0 
